c {"clauses":7,"maxClauseSize":8,"minClauseSize":2,"totalLiterals":38,"variables":10}
p cnf 10 7
1 -2 -3 4 -4 0
5 -5 -5 6 -6 -7 0
3 -8 -8 -9 -1 0
-2 -6 -2 -6 3 -3 -6 -8 0
1 9 1 -8 -4 0
-2 10 5 -9 4 -1 -10 0
-3 4 0
